(set-logic QF_UF)
(declare-fun A0 () Bool)
(declare-fun A1 () Bool)
(declare-fun A2 () Bool)
(declare-fun A3 () Bool)
(declare-fun A4 () Bool)
(declare-fun A5 () Bool)
(declare-fun A6 () Bool)
(declare-fun A7 () Bool)
(declare-fun A8 () Bool)
(declare-fun A9 () Bool)
(declare-fun A10 () Bool)
(declare-fun A11 () Bool)
(declare-fun A13 () Bool)
(declare-fun A14 () Bool)
(declare-fun A15 () Bool)
(declare-fun A16 () Bool)
(declare-fun A17 () Bool)
(declare-fun A18 () Bool)
(declare-fun A19 () Bool)
(declare-fun A20 () Bool)
(declare-fun A21 () Bool)
(declare-fun A22 () Bool)
(declare-fun A23 () Bool)
(declare-fun A24 () Bool)
(assert (let ((.def_0 (not A10))) (let ((.def_1 (not A2))) (let ((.def_2 (and .def_1 .def_0))) (let ((.def_3 (or A0 A8))) (let ((.def_4 (not .def_3))) (let ((.def_5 (and .def_4 .def_2))) (let ((.def_6 (not A21))) (let ((.def_7 (or A0 .def_6))) (let ((.def_8 (not A16))) (let ((.def_9 (not A6))) (let ((.def_10 (or .def_9 .def_8))) (let ((.def_11 (and .def_10 .def_7))) (let ((.def_12 (or .def_11 .def_5))) (let ((.def_13 (and A16 A3))) (let ((.def_14 (not .def_13))) (let ((.def_15 (or A24 A13))) (let ((.def_16 (or .def_15 .def_14))) (let ((.def_17 (not A9))) (let ((.def_18 (not A17))) (let ((.def_19 (or .def_18 .def_17))) (let ((.def_20 (not A18))) (let ((.def_21 (or A3 .def_20))) (let ((.def_22 (not .def_21))) (let ((.def_23 (or .def_22 .def_19))) (let ((.def_24 (not .def_23))) (let ((.def_25 (and .def_24 .def_16))) (let ((.def_26 (not .def_25))) (let ((.def_27 (or .def_26 .def_12))) (let ((.def_28 (not .def_27))) (let ((.def_29 (or A20 A13))) (let ((.def_30 (not A24))) (let ((.def_31 (or .def_30 A5))) (let ((.def_32 (not .def_31))) (let ((.def_33 (and .def_32 .def_29))) (let ((.def_34 (not A8))) (let ((.def_35 (not A1))) (let ((.def_36 (and .def_35 .def_34))) (let ((.def_37 (not .def_36))) (let ((.def_38 (not A3))) (let ((.def_39 (not A0))) (let ((.def_40 (and .def_39 .def_38))) (let ((.def_41 (not .def_40))) (let ((.def_42 (or .def_41 .def_37))) (let ((.def_43 (not .def_42))) (let ((.def_44 (and .def_43 .def_33))) (let ((.def_45 (not .def_44))) (let ((.def_46 (not A13))) (let ((.def_47 (or .def_46 .def_20))) (let ((.def_48 (not .def_47))) (let ((.def_49 (or A13 A15))) (let ((.def_50 (not .def_49))) (let ((.def_51 (and .def_50 .def_48))) (let ((.def_52 (or A13 .def_38))) (let ((.def_53 (not .def_52))) (let ((.def_54 (not A4))) (let ((.def_55 (and .def_54 A22))) (let ((.def_56 (and .def_55 .def_53))) (let ((.def_57 (and .def_56 .def_51))) (let ((.def_58 (not .def_57))) (let ((.def_59 (and .def_58 .def_45))) (let ((.def_60 (not .def_59))) (let ((.def_61 (and .def_60 .def_28))) (let ((.def_62 (not .def_61))) (let ((.def_63 (not A7))) (let ((.def_64 (and A17 .def_63))) (let ((.def_65 (= .def_38 A13))) (let ((.def_66 (not .def_65))) (let ((.def_67 (= .def_66 .def_64))) (let ((.def_68 (or A5 .def_35))) (let ((.def_69 (not .def_68))) (let ((.def_70 (not A15))) (let ((.def_71 (and .def_46 .def_70))) (let ((.def_72 (= .def_71 .def_69))) (let ((.def_73 (not .def_72))) (let ((.def_74 (or .def_73 .def_67))) (let ((.def_75 (not .def_74))) (let ((.def_76 (not A19))) (let ((.def_77 (and .def_6 .def_76))) (let ((.def_78 (or .def_6 .def_6))) (let ((.def_79 (= .def_78 .def_77))) (let ((.def_80 (not A23))) (let ((.def_81 (and .def_63 .def_80))) (let ((.def_82 (or A17 .def_18))) (let ((.def_83 (or .def_82 .def_81))) (let ((.def_84 (not .def_83))) (let ((.def_85 (and .def_84 .def_79))) (let ((.def_86 (or .def_85 .def_75))) (let ((.def_87 (not .def_86))) (let ((.def_88 (= A20 A8))) (let ((.def_89 (not .def_88))) (let ((.def_90 (and A11 A1))) (let ((.def_91 (not .def_90))) (let ((.def_92 (or .def_91 .def_89))) (let ((.def_93 (not .def_92))) (let ((.def_94 (= .def_54 .def_63))) (let ((.def_95 (not A14))) (let ((.def_96 (or .def_95 A11))) (let ((.def_97 (and .def_96 .def_94))) (let ((.def_98 (not .def_97))) (let ((.def_99 (or .def_98 .def_93))) (let ((.def_100 (not .def_99))) (let ((.def_101 (or .def_17 .def_6))) (let ((.def_102 (or .def_0 A23))) (let ((.def_103 (not .def_102))) (let ((.def_104 (or .def_103 .def_101))) (let ((.def_105 (not .def_104))) (let ((.def_106 (and .def_9 .def_30))) (let ((.def_107 (not .def_106))) (let ((.def_108 (or .def_54 A17))) (let ((.def_109 (not .def_108))) (let ((.def_110 (and .def_109 .def_107))) (let ((.def_111 (not .def_110))) (let ((.def_112 (or .def_111 .def_105))) (let ((.def_113 (or .def_112 .def_100))) (let ((.def_114 (not .def_113))) (let ((.def_115 (or .def_114 .def_87))) (let ((.def_116 (not .def_115))) (let ((.def_117 (and .def_116 .def_62))) (let ((.def_118 (not .def_117))) .def_118))))))))))))))))))))))))))))))))))))))))))))))))))))))))))))))))))))))))))))))))))))))))))))))))))))))))))))))))))))))))
(check-sat)
